COLUMNS

passenger_count
pickup_ID
dropoff_ID
request_time_sec
pickup_district
dropoff_district
LDuals
IDuals
vehicle_ID
pick_position
drop_position

REQUESTS_INFO
2      875       903       29338     291       290       160       160       43        1         3         
1      398       505       29303     168       52        211       211       82        1         3         
3      257       304       29163     87        299       344       344       108       1         2         
2      257       332       29261     87        87        242       242       109       1         2         
1      815       555       29358     290       199       129       129       178       1         3         
1      354       526       29347     119       52        123       123       198       1         3         
1      748       484       29347     290       189       117       117       216       1         3         
2      297       368       29367     277       299       198       198       256       1         2         
1      337       314       29363     277       119       163       163       266       1         2         
1      309       417       29349     127       100       145       145       271       1         2         
2      220       484       29305     87        189       189       189       285       1         3         
2      840       573       29365     290       189       105       105       289       1         2         
1      549       511       29362     52        199       82        82        324       1         2         
1      1045      1032      29345     291       84        157       157       354       1         2         
1      466       536       29355     199       189       94        94        382       1         2         
1      438       551       29346     100       189       127       127       392       1         2         
1      511       212       29351     199       266       135       135       451       1         2         
1      1026      904       29336     291       290       218       218       511       1         2         
2      444       602       29341     168       189       130       130       517       1         2         
1      1107      1107      29354     291       291       95        95        527       1         2         
1      353       628       29203     119       189       278       278       548       1         2         
3      812       674       29357     290       189       105       105       588       1         2         
1      475       488       29318     52        199       172       172       601       1         2         
1      816       719       29322     290       189       153       153       670       1         3         
3      959       670       29321     291       280       182       182       681       1         2         
1      1088      675       29343     291       189       174       174       683       1         2         
3      1035      1055      29340     84        84        141       141       686       1         2         
3      398       315       29344     168       277       170       170       780       1         2         
1      947       334       29370     290       119       0         0         0         0         0         
1      396       651       29370     119       189       0         0         0         0         0         
1      645       117       29370     280       286       0         0         0         0         0         
1      465       605       29370     199       189       0         0         0         0         0         
3      980       673       29371     291       189       0         0         0         0         0         
1      1091      79        29371     291       98        0         0         0         0         0         
1      574       647       29371     189       280       0         0         0         0         0         
1      598       579       29371     189       189       0         0         0         0         0         
3      980       673       29371     291       189       0         0         0         0         0         
1      651       718       29372     189       189       0         0         0         0         0         
1      905       459       29372     290       189       0         0         0         0         0         
1      1114      905       29372     50        290       0         0         0         0         0         
1      374       904       29373     119       290       0         0         0         0         0         
1      1069      1031      29373     291       50        0         0         0         0         0         
1      722       116       29373     290       9         0         0         0         0         0         
3      581       527       29373     189       52        0         0         0         0         0         
3      581       527       29373     189       52        0         0         0         0         0         
1      654       45        29375     189       98        0         0         0         0         0         
1      662       485       29375     131       189       0         0         0         0         0         
1      1319      687       29375     129       131       0         0         0         0         0         
1      488       928       29376     199       290       0         0         0         0         0         
1      22        371       29376     98        52        0         0         0         0         0         
1      458       601       29376     52        189       0         0         0         0         0         
1      760       618       29376     291       131       0         0         0         0         0         
1      927       851       29376     290       291       0         0         0         0         0         
1      524       217       29377     52        87        0         0         0         0         0         
1      457       399       29377     52        168       0         0         0         0         0         
1      549       573       29378     52        189       0         0         0         0         0         
3      665       717       29379     131       189       0         0         0         0         0         
3      665       717       29379     131       189       0         0         0         0         0         
1      689       805       29380     131       291       0         0         0         0         0         
1      556       357       29380     199       277       0         0         0         0         0         
1      928       925       29380     290       290       0         0         0         0         0         
2      373       641       29380     119       131       0         0         0         0         0         
1      726       651       29380     290       189       0         0         0         0         0         
1      527       533       29381     52        199       0         0         0         0         0         
1      772       444       29381     290       168       0         0         0         0         0         
1      696       531       29382     189       189       0         0         0         0         0         
2      666       643       29382     131       131       0         0         0         0         0         
3      666       643       29382     131       131       0         0         0         0         0         
1      584       721       29382     189       290       0         0         0         0         0         
1      828       849       29382     291       291       0         0         0         0         0         
1      549       772       29383     52        290       0         0         0         0         0         
2      760       756       29383     291       131       0         0         0         0         0         
3      679       1378      29384     290       129       0         0         0         0         0         
2      679       1378      29384     290       129       0         0         0         0         0         
1      722       479       29384     290       52        0         0         0         0         0         
1      354       45        29384     119       98        0         0         0         0         0         
1      620       716       29385     131       189       0         0         0         0         0         
2      486       597       29385     199       131       0         0         0         0         0         
3      620       695       29386     131       189       0         0         0         0         0         
3      620       695       29386     131       189       0         0         0         0         0         
1      504       79        29386     52        98        0         0         0         0         0         
1      794       1218      29387     290       84        0         0         0         0         0         
1      581       526       29387     189       52        0         0         0         0         0         
1      623       828       29388     280       291       0         0         0         0         0         
1      418       605       29388     168       189       0         0         0         0         0         
3      827       697       29389     291       189       0         0         0         0         0         
1      414       436       29389     100       100       0         0         0         0         0         
3      827       697       29389     291       189       0         0         0         0         0         
1      665       505       29390     131       52        0         0         0         0         0         
3      663       647       29390     131       280       0         0         0         0         0         
2      663       647       29390     131       280       0         0         0         0         0         
1      971       48        29391     290       98        0         0         0         0         0         
2      991       904       29391     290       290       0         0         0         0         0         
1      652       771       29392     189       290       0         0         0         0         0         
1      417       698       29392     100       189       0         0         0         0         0         
1      1001      771       29392     291       290       0         0         0         0         0         
1      216       421       29392     178       168       0         0         0         0         0         
1      826       719       29392     291       189       0         0         0         0         0         
2      737       527       29393     189       52        0         0         0         0         0         
1      549       671       29394     52        280       0         0         0         0         0         
1      937       893       29394     291       291       0         0         0         0         0         
1      415       99        29395     100       286       0         0         0         0         0         
1      858       904       29395     290       290       0         0         0         0         0         
4      354       558       29395     119       189       0         0         0         0         0         
1      716       694       29396     189       189       0         0         0         0         0         
1      333       97        29397     119       9         0         0         0         0         0         
1      608       748       29397     189       290       0         0         0         0         0         
3      296       463       29397     277       168       0         0         0         0         0         
3      296       463       29397     277       168       0         0         0         0         0         
1      883       968       29399     290       290       0         0         0         0         0         
1      513       558       29399     199       189       0         0         0         0         0         
1      1054      1188      29399     84        192       0         0         0         0         0         
